proyfinal/src/viki/013/experimentInOfficeAgust.take6.output/b2065c2d-47e5-4286-bcb5-6bc46e6956bc.als.dat
{'cnf.clauses': '118081',
 'cnf.totvars': '69608',
 'conflict literals': '1',
 'conflicts': '2',
 'decisions': '680',
 'memused.mb': '15.29',
 'outcome': 'UNSAT',
 'propagations': '19512',
 'restarts': '1',
 'solver.msecs': 35,
 'task.msecs': 98}
