proyfinal/src/viki/013/experimentInOfficeAgust.take6.output/b2065c2d-47e5-4286-bcb5-6bc46e6956bc.als.out
Reading from standard input... Use '--help' for help.
============================[ Problem Statistics ]=============================
|                                                                             |
|  Number of variables:         69608                                         |
|  Number of clauses:          118081                                         |
|  Parse time:                   0.02 s                                       |
|                                                                             |
============================[ Search Statistics ]==============================
| Conflicts |          ORIGINAL         |          LEARNT          | Progress |
|           |    Vars  Clauses Literals |    Limit  Clauses Lit/Cl |          |
===============================================================================
===============================================================================
restarts              : 1
conflicts             : 2              (56 /sec)
decisions             : 680            (0.00 % random) (19171 /sec)
propagations          : 19512          (550083 /sec)
conflict literals     : 1              (0.00 % deleted)
Memory used           : 15.29 MB
CPU time              : 0.035471 s

UNSATISFIABLE
